unknown
(model
; cardinality of BoundSet is 2
(declare-sort BoundSet 0)
; rep: @uc_BoundSet_0
; rep: @uc_BoundSet_1
; cardinality of UnboundSet is 1
(declare-sort UnboundSet 0)
(declare-fun groundTerm_3 () UnboundSet)
(define-fun CausedBy ((BOUND_VARIABLE_404 BoundSet) (BOUND_VARIABLE_405 BoundSet)) Bool true)
(define-fun IsComplexNaturalPhenomenon ((BOUND_VARIABLE_408 BoundSet)) Bool true)
(define-fun HaveNothingToDoWith ((BOUND_VARIABLE_404 BoundSet) (BOUND_VARIABLE_405 BoundSet)) Bool false)
(define-fun EmissionsBy ((BOUND_VARIABLE_404 BoundSet) (BOUND_VARIABLE_405 BoundSet)) Bool false)
)
sat
(model
; cardinality of BoundSet is 1
(declare-sort BoundSet 0)
; rep: @uc_BoundSet_0
; cardinality of UnboundSet is 1
(declare-sort UnboundSet 0)
(declare-fun groundTerm_5 () UnboundSet)
(define-fun CausedBy ((BOUND_VARIABLE_451 BoundSet) (BOUND_VARIABLE_452 BoundSet)) Bool true)
(define-fun IsComplexNaturalPhenomenon ((BOUND_VARIABLE_455 BoundSet)) Bool true)
(define-fun HaveNothingToDoWith ((BOUND_VARIABLE_451 BoundSet) (BOUND_VARIABLE_452 BoundSet)) Bool false)
(define-fun EmissionsBy ((BOUND_VARIABLE_451 BoundSet) (BOUND_VARIABLE_452 BoundSet)) Bool true)
)
